NAME: GridMap_Converted
TYPE: TSP
COMMENT: Mapeamento original -> 1=H, 2=M, 3=K, 4=I, 5=B, 6=N, 7=O, 8=G, 9=F, 10=C, 11=V, 12=A, 13=Q, 14=J, 15=S, 16=W, 17=U, 18=Y, 19=Z, 20=P, 21=L, 22=X, 23=T, 24=Ç, 25=R, 26=D, 27=E
DIMENSION: 27
EDGE_WEIGHT_TYPE: EUC_2D
NODE_COORD_SECTION
1 1.0 1.0
2 12.0 1.0
3 4.0 2.0
4 15.0 2.0
5 6.0 3.0
6 9.0 3.0
7 15.0 3.0
8 2.0 4.0
9 14.0 4.0
10 9.0 5.0
11 12.0 5.0
12 4.0 6.0
13 9.0 6.0
14 1.0 7.0
15 15.0 7.0
16 5.0 8.0
17 12.0 8.0
18 3.0 9.0
19 12.0 9.0
20 3.0 10.0
21 15.0 10.0
22 2.0 11.0
23 5.0 11.0
24 15.0 11.0
25 1.0 12.0
26 13.0 12.0
27 15.0 12.0
EOF
